#NAME: SHUBHAM SHARMA
#ROLL NO: 18i190002
#COURSE: MSC PHD OR
param N:=5;#giving the parameter N value '5'
param CAPACITY:=  #defining the capacities of eachaircrafts
1 2
2 1
3 2
4 1
5 2;
param MAX_BUDGET:=13; #defining the maximum budget we have.
param COST:= # definig the cost of each of the aircraft
1 3
2 3
3 2
4 2
5 3;
param MAX_PS:=11; #defining the maximum parking space
param SPACE_REQUIREMENT:= #defining the parking space for each of the aircraft.
1 2
2 1
3 3
4 1
5 2;
